Input: ticf-13crafb.prec25.dzn
============================================================
Total Runtime: 2.7421 seconds
Input parsing: 0.0009 seconds
Constraint building: 0.6882 seconds
MaxSAT solving: 1.5765 seconds
============================================================

Total variables: 222313
Total clauses: 483870
MaxSAT found with cost: 0
NO SOLUTION FOUND
